fcc:  Ni
3.53
0.5 0.5 0.0
0.0 0.5 0.5
0.5 0.0 0.5
Ni
1
Selective Dyn
Cartesian
0 0 0  T T T
